2797
6485
9681
6894
5207
9759
8781
8761
1997
3218
2097
4056
729
7966
3453
2224
2277
9505
3893
4574
412
6370
944
2976
4686
3139
4341
3274
2251
5453
9021
8473
2059
9860
4676
9543
7200
9642
7760
2300
4886
3422
4939
3193
6205
1653
8339
7597
4544
2615
2526
